HmaxDs = 1.500000
HmaxUB_percent = 1.053770
HmaxUB_real = 5862.492832
FTnetDs = 1.500000
FTnetUB_percent = 1.965964
FTnetUB_real = 16654.977309
TIFgap = 0.200000
LimCIPF = 80.820376
SCIP version 1.1.0 [precision: 8 byte] [memory: block] [mode: optimized] [LP solver: Clp 1.8.2]
Copyright (c) 2002-2008 Konrad-Zuse-Zentrum fuer Informationstechnik Berlin (ZIB)

reading user parameter file </home/fabio/docs/hierarquia/models/scip.set>

read problem <data.N30.I1.s1.cluster1.T5.GL1.W1.TIFgap0.2.mps.gz>
============

original problem has 175 variables (90 bin, 0 int, 0 impl, 85 cont) and 102 constraints

solve problem
=============

presolving:
(round 1) 3 del vars, 3 del conss, 4 chg bounds, 0 chg sides, 20 chg coeffs, 0 upgd conss, 0 impls, 20 clqs
(round 2) 5 del vars, 3 del conss, 4 chg bounds, 1 chg sides, 20 chg coeffs, 0 upgd conss, 0 impls, 20 clqs
(round 3) 5 del vars, 3 del conss, 4 chg bounds, 3 chg sides, 20 chg coeffs, 0 upgd conss, 0 impls, 20 clqs
(round 4) 5 del vars, 4 del conss, 4 chg bounds, 3 chg sides, 20 chg coeffs, 21 upgd conss, 0 impls, 20 clqs
presolving (5 rounds):
 5 deleted vars, 4 deleted constraints, 4 tightened bounds, 0 added holes, 3 changed sides, 20 changed coefficients
 162 implications, 20 cliques
presolved problem has 170 variables (90 bin, 0 int, 0 impl, 80 cont) and 98 constraints
      1 constraints of type <knapsack>
     20 constraints of type <setppc>
     77 constraints of type <linear>
Presolving Time: 0.02

 time | node  | left  |LP iter| mem |mdpt |frac |vars |cons |ccons|cols |rows |cuts |confs|strbr|  dualbound   | primalbound  |  gap   
  0.0s|     1 |     0 |    62 | 516k|   0 |  34 | 170 |  98 |  98 | 170 |  98 |   0 |   0 |   0 | 6.629582e+01 |      --      |    Inf 
  0.1s|     1 |     0 |   686 | 562k|   0 |  31 | 170 |  98 |  98 | 170 | 115 |  17 |   0 |   0 | 6.304610e+03 |      --      |    Inf 
  0.1s|     1 |     0 |   726 | 597k|   0 |  30 | 170 |  98 |  98 | 170 | 134 |  36 |   0 |   0 | 7.252735e+03 |      --      |    Inf 
  0.1s|     1 |     0 |   804 | 623k|   0 |  38 | 170 |  98 |  98 | 170 | 150 |  52 |   0 |   0 | 7.945835e+03 |      --      |    Inf 
  0.2s|     1 |     0 |   873 | 644k|   0 |  45 | 170 |  98 |  98 | 170 | 162 |  64 |   0 |   0 | 8.086864e+03 |      --      |    Inf 
  0.4s|     1 |     0 |   924 | 658k|   0 |  43 | 170 |  98 |  98 | 170 | 172 |  74 |   0 |   0 | 8.253667e+03 |      --      |    Inf 
  0.5s|     1 |     0 |   935 | 667k|   0 |  44 | 170 |  98 |  98 | 170 | 179 |  81 |   0 |   0 | 8.258324e+03 |      --      |    Inf 
  0.7s|     1 |     0 |   955 | 675k|   0 |  44 | 170 |  98 |  98 | 170 | 185 |  87 |   0 |   0 | 8.274378e+03 |      --      |    Inf 
  0.8s|     1 |     0 |  1000 | 678k|   0 |  42 | 170 |  98 |  98 | 170 | 187 |  89 |   0 |   0 | 8.326258e+03 |      --      |    Inf 
  1.0s|     1 |     0 |  1013 | 680k|   0 |  42 | 170 |  98 |  98 | 170 | 189 |  91 |   0 |   0 | 8.327948e+03 |      --      |    Inf 
  1.1s|     1 |     0 |  1055 | 684k|   0 |  38 | 170 |  98 |  98 | 170 | 192 |  94 |   0 |   0 | 8.359072e+03 |      --      |    Inf 
  1.7s|     1 |     2 |  1055 | 686k|   0 |  38 | 170 |  98 |  98 | 170 | 192 |  94 |   0 |  36 | 8.359072e+03 |      --      |    Inf 

SCIP Status        : problem is solved [infeasible]
Solving Time (sec) : 4.89
Solving Nodes      : 40
Primal Bound       : +1.00000000000000e+20 (0 solutions)
Dual Bound         : +1.00000000000000e+20
Gap                : 0.00 %

primal solution:
================

no solution available

Statistics
==========

SCIP Status        : problem is solved [infeasible]
Solving Time       :       4.89
Original Problem   :
  Problem name     : labtel
  Variables        : 175 (90 binary, 0 integer, 0 implicit integer, 85 continuous)
  Constraints      : 102 initial, 102 maximal
Presolved Problem  :
  Problem name     : t_labtel
  Variables        : 170 (90 binary, 0 integer, 0 implicit integer, 80 continuous)
  Constraints      : 98 initial, 128 maximal
Presolvers         :       Time  FixedVars   AggrVars   ChgTypes  ChgBounds   AddHoles    DelCons   ChgSides   ChgCoefs
  trivial          :       0.00          0          0          0          0          0          0          0          0
  dualfix          :       0.00          0          0          0          0          0          0          0          0
  boundshift       :       0.00          0          0          0          0          0          0          0          0
  inttobinary      :       0.00          0          0          0          0          0          0          0          0
  implics          :       0.00          0          0          0          0          0          0          0          0
  probing          :       0.01          0          0          0          0          0          0          0          0
  knapsack         :       0.00          0          0          0          0          0          0          0          0
  setppc           :       0.00          0          0          0          0          0          0          0          0
  linear           :       0.00          0          5          0          4          0          4          3         20
  logicor          :       0.00          0          0          0          0          0          0          0          0
  bounddisjunction :       0.00          0          0          0          0          0          0          0          0
  root node        :          -         62          -          -        101          -          -          -          -
Constraints        :     Number  #Separate #Propagate    #EnfoLP    #EnfoPS    Cutoffs    DomReds       Cuts      Conss   Children
  integral         :          0          0          0         51          0          5         98          0          0         40
  knapsack         :          1         11        398          0          0          0          5          0          0          0
  setppc           :         20         11        414          0          0          0        587          0          0          0
  linear           :         77         11        428          0          0         15        844          1          0          0
  logicor          :          0+         0         38          0          0          0          5          0          0          0
  bounddisjunction :          0+         0         17          0          0          0          0          0          0          0
  countsols        :          0          0          0          0          0          0          0          0          0          0
Constraint Timings :  TotalTime   Separate  Propagate     EnfoLP     EnfoPS
  integral         :       3.10       0.00       0.00       3.10       0.00
  knapsack         :       0.00       0.00       0.00       0.00       0.00
  setppc           :       0.00       0.00       0.00       0.00       0.00
  linear           :       0.03       0.00       0.03       0.00       0.00
  logicor          :       0.00       0.00       0.00       0.00       0.00
  bounddisjunction :       0.00       0.00       0.00       0.00       0.00
  countsols        :       0.00       0.00       0.00       0.00       0.00
Propagators        :       Time      Calls    Cutoffs    DomReds
  rootredcost      :       0.00          0          0          0
  pseudoobj        :       0.00        244          0          0
Conflict Analysis  :       Time      Calls    Success  Conflicts   Literals    Reconvs ReconvLits   LP Iters
  propagation      :       0.00         15         15         50       23.8          0        0.0          -
  infeasible LP    :       0.00         11          0          0        0.0          0        0.0          0
  bound exceed. LP :       0.00          0          0          0        0.0          0        0.0          0
  strong branching :       0.00          0          0          0        0.0          0        0.0          0
  pseudo solution  :       0.00          0          0          0        0.0          0        0.0          -
  applied globally :          -          -          -         31       15.5          -          -          -
  applied locally  :          -          -          -          0        0.0          -          -          -
Separators         :       Time      Calls    Cutoffs    DomReds       Cuts      Conss
  cut pool         :       0.00         10          -          -         14          -    (maximal pool size: 169)
  redcost          :       0.00         61          0          0          0          0
  impliedbounds    :       0.00         11          0          0          0          0
  intobj           :       0.00          0          0          0          0          0
  gomory           :       0.02         11          0          0         10          0
  strongcg         :       0.02         11          0          0          0          0
  cmir             :       0.40         10          0          0        143          0
  flowcover        :       0.50         10          0          0         30          0
  clique           :       0.00         11          0          0          0          0
  zerohalf         :       0.00          0          0          0          0          0
  mcf              :       0.00          0          0          0          0          0
Pricers            :       Time      Calls       Vars
  problem variables:       0.00          0          0
Branching Rules    :       Time      Calls    Cutoffs    DomReds       Cuts      Conss   Children
  relpscost        :       3.10         51          5         98          0          0         40
  pscost           :       0.00          0          0          0          0          0          0
  inference        :       0.00          0          0          0          0          0          0
  mostinf          :       0.00          0          0          0          0          0          0
  leastinf         :       0.00          0          0          0          0          0          0
  fullstrong       :       0.00          0          0          0          0          0          0
  allfullstrong    :       0.00          0          0          0          0          0          0
  random           :       0.00          0          0          0          0          0          0
Primal Heuristics  :       Time      Calls      Found
  LP solutions     :       0.00          -          0
  pseudo solutions :       0.00          -          0
  oneopt           :       0.00          0          0
  objpscostdiving  :       0.00          0          0
  rootsoldiving    :       0.00          0          0
  linesearchdiving :       0.00          0          0
  guideddiving     :       0.00          0          0
  crossover        :       0.00          0          0
  coefdiving       :       0.00          1          0
  pscostdiving     :       0.00          1          0
  simplerounding   :       0.00          0          0
  rounding         :       0.00         61          0
  shifting         :       0.01         14          0
  intshifting      :       0.00          1          0
  fixandinfer      :       0.00          0          0
  feaspump         :       0.04          1          0
  fracdiving       :       0.01          1          0
  veclendiving     :       0.02          1          0
  intdiving        :       0.00          0          0
  actconsdiving    :       0.00          0          0
  octane           :       0.00          0          0
  rens             :       0.26          1          0
  rins             :       0.00          0          0
  localbranching   :       0.00          0          0
  mutation         :       0.00          0          0
  dins             :       0.00          0          0
LP                 :       Time      Calls Iterations  Iter/call   Iter/sec
  primal LP        :       0.00          0          0       0.00          -
  dual LP          :       0.44         73       3972      54.41    9027.27
  barrier LP       :       0.00          0          0       0.00          -
  diving/probing LP:       0.03         46        780      16.96   26000.00
  strong branching :       3.09        465      40954      88.07   13253.72
    (at root node) :          -         36       3425      95.14          -
  conflict analysis:       0.00          0          0       0.00          -
B&B Tree           :
  number of runs   :          1
  nodes            :         40
  nodes (total)    :         40
  nodes left       :          0
  max depth        :         12
  max depth (total):         12
  backtracks       :          6 (15.0%)
  delayed cutoffs  :          1
  repropagations   :          3 (99 domain reductions, 1 cutoffs)
  avg switch length:       2.05
  switching time   :       0.03
Solution           :
  Solutions found  :          0 (0 improvements)
  Primal Bound     : infeasible
  Dual Bound       :          -
  Gap              :       0.00 %
  Root Dual Bound  : +8.35907223606020e+03
